33D32945 STP File, STP Format Version 1.0

SECTION Comments
Name "cube_n10_d4_s35"
Problem "Euclidean Steiner Tree Problem"
Remark "Generated with STPGenerator. 4 dimensions."
END

SECTION Graph
Nodes 10
END

SECTION Coordinates
DDDD 0 0.5244897048 0.4379004908 0.0703035561 0.1812310276
DDDD 1 0.1675375119 0.7022328906 0.1086744881 0.7979400231
DDDD 2 0.6606961906 0.4311483691 0.7982122655 0.1291394788
DDDD 3 0.0071734451 0.7727813925 0.1620692490 0.0411185827
DDDD 4 0.8098084530 0.6971266361 0.7090024225 0.6096137295
DDDD 5 0.4707293680 0.5849627301 0.0336940070 0.4157471649
DDDD 6 0.4610662150 0.6987889817 0.7545507828 0.7532587111
DDDD 7 0.6467614917 0.3806424362 0.9537834986 0.1712511960
DDDD 8 0.8185429270 0.0240870542 0.3524822240 0.9860804393
DDDD 9 0.7263199448 0.4611567121 0.7840204620 0.3870161350
END
